RAW/XQ/fspd-mid/X-n129-k18.vrp_seed-9.out
21905	105.803	132.733
