RAW/XQ/fspd-mid/X-n129-k18.vrp_seed-9.sol
Route #1: 3
Route #2: 15 66 90 89 75 91
Route #3: 78 50 52 27 113 82 103 86
Route #4: 74 14 99 42 97 31 69 51 109 125
Route #5: 63 9 111 94 121 87 98 68 106 5
Route #6: 119 19 6 29 45 22 54 7 124
Route #7: 47 127 53 123 70 118 38
Route #8: 102 26 126 71 49 73 12 37 8 120 83 28 24
Route #9: 117 115 122 128 107 36 81 4 80 20
Route #10: 30 84 25 62 56 13 57 35 77 60 23 44 64
Route #11: 110 17 101 41 40 55 61 85 11 105 65 108 100 72 112
Route #12: 93 18 59 1 39 67 88
Route #13: 43 46 33 21 34 2 48 58 76 79 10 104 92 116 95 96 114 32 16
Cost 21905.000000